c A SAT instance generated from a 3-CNF formula that had 24 clauses and 12 variables
p cnf 12 24
5 -10 -1 0
-7 -11 -8 0
8 -12 -5 0
9 10 4 0
-9 8 -2 0
4 -1 -6 0
8 -5 2 0
3 -9 -11 0
-2 -12 -11 0
-5 -10 -11 0
-1 -3 -2 0
-9 -3 5 0
-3 -4 -12 0
-1 -3 -6 0
12 -5 -10 0
3 8 7 0
12 -2 -1 0
-6 -1 -11 0
-6 -7 12 0
1 4 5 0
-6 3 10 0
4 -11 -2 0
2 9 10 0
4 7 -10 0
